Cl9 Cs3 Bi2                             
   1.00000000000000     
     7.6725366934905095    0.0000000000000000    0.0000000000000000
    -3.8362683467452547    6.6446116880310413    0.0000000000000000
     0.0000000000000000   -0.0000000000000000    9.4867213936279278
   Cl   Cs   Bi
     9     3     2
Direct
 -0.0000000000000000  0.5000000000000000  0.0000000000000000
  0.1693611877159261  0.3387223754318521  0.6643438547803331
  0.1693611877159261  0.8306388122840739  0.6643438547803331
  0.3387223754318521  0.1693611877159261  0.3356561452196670
  0.5000000000000000 -0.0000000000000000  0.0000000000000000
  0.5000000000000000  0.5000000000000000  0.0000000000000000
  0.6612776245681479  0.8306388122840739  0.6643438547803331
  0.8306388122840739  0.1693611877159261  0.3356561452196670
  0.8306388122840739  0.6612776245681479  0.3356561452196670
 -0.0000000000000000 -0.0000000000000000  0.0000000000000000
  0.3333333333330017  0.6666666666669983  0.3402697391711633
  0.6666666666669983  0.3333333333330017  0.6597302608288367
  0.3333333333330017  0.6666666666669983  0.8119297724082110
  0.6666666666669983  0.3333333333330017  0.1880702275917890
 
  0.00000000E+00  0.00000000E+00  0.00000000E+00
  0.00000000E+00  0.00000000E+00  0.00000000E+00
  0.00000000E+00  0.00000000E+00  0.00000000E+00
  0.00000000E+00  0.00000000E+00  0.00000000E+00
  0.00000000E+00  0.00000000E+00  0.00000000E+00
  0.00000000E+00  0.00000000E+00  0.00000000E+00
  0.00000000E+00  0.00000000E+00  0.00000000E+00
  0.00000000E+00  0.00000000E+00  0.00000000E+00
  0.00000000E+00  0.00000000E+00  0.00000000E+00
  0.00000000E+00  0.00000000E+00  0.00000000E+00
  0.00000000E+00  0.00000000E+00  0.00000000E+00
  0.00000000E+00  0.00000000E+00  0.00000000E+00
  0.00000000E+00  0.00000000E+00  0.00000000E+00
  0.00000000E+00  0.00000000E+00  0.00000000E+00
