skuterrudites                           
   9.14900000000000     
    -1.0000000000000000    1.0000000000000000    1.0000000000000000
     1.0000000000000000   -1.0000000000000000    1.0000000000000000
     1.0000000000000000    1.0000000000000000   -1.0000000000000000
Ba Co Sb
   2  32  96
Direct
  0.0000000000000000  0.0000000000000000  0.0000000000000000
  0.5000000000000000  0.5000000000000000  0.5000000000000000
  0.2500000000000000  0.2500000000000000  0.2500000000000000
  0.2500000000000000  0.2500000000000000  0.7500000000000000
  0.2500000000000000  0.7500000000000000  0.2500000000000000
  0.2500000000000000  0.7500000000000000  0.7500000000000000
  0.7500000000000000  0.2500000000000000  0.2500000000000000
  0.7500000000000000  0.2500000000000000  0.7500000000000000
  0.7500000000000000  0.7500000000000000  0.2500000000000000
  0.7500000000000000  0.7500000000000000  0.7500000000000000
 -0.0003721220102348 -0.0002888020616204  0.2492146200789927
  0.0003721220102348  0.0002888020616204  0.7507853799210072
 -0.0001717987425564  0.5004723430777573  0.2500818284098917
  0.0001717987425564  0.4995276569222426  0.7499181715901083
  0.5001717987425565 -0.0004723430777573  0.2499181715901082
  0.4998282012574435  0.0004723430777573  0.7500818284098917
  0.5003721220102347  0.5002888020616204  0.2507853799210074
  0.4996278779897652  0.4997111979383795  0.7492146200789928
 -0.0002888020616204  0.2492146200789927 -0.0003721220102348
 -0.0004723430777573  0.2499181715901082  0.5001717987425565
  0.0002888020616204  0.7507853799210072  0.0003721220102348
  0.0004723430777573  0.7500818284098917  0.4998282012574435
  0.5004723430777573  0.2500818284098917 -0.0001717987425564
  0.5002888020616204  0.2507853799210074  0.5003721220102347
  0.4995276569222426  0.7499181715901083  0.0001717987425564
  0.4997111979383795  0.7492146200789928  0.4996278779897652
  0.2492146200789927 -0.0003721220102348 -0.0002888020616204
  0.2500818284098917 -0.0001717987425564  0.5004723430777573
  0.2499181715901082  0.5001717987425565 -0.0004723430777573
  0.2507853799210074  0.5003721220102347  0.5002888020616204
  0.7507853799210072  0.0003721220102348  0.0002888020616204
  0.7499181715901083  0.0001717987425564  0.4995276569222426
  0.7500818284098917  0.4998282012574435  0.0004723430777573
  0.7492146200789928  0.4996278779897652  0.4997111979383795
  0.2538796936023652  0.0818024950730470  0.1717557162330487
  0.2469791880874869  0.0803986783973092  0.6669176889527626
  0.2432389459935120  0.5802031958590096  0.1626905481597507
  0.2470052014247771  0.5805209289595150  0.6668006479686865
  0.7470052014247770  0.0805209289595150  0.1668006479686866
  0.7432389459935120  0.0802031958590097  0.6626905481597505
  0.7469791880874870  0.5803986783973092  0.1669176889527625
  0.7538796936023652  0.5818024950730472  0.6717557162330486
  0.4173803771296674  0.0800307003692280  0.3370222418382386
  0.4139012886936966  0.0807164457832281  0.8335109654189595
  0.4103024278935942  0.5820397069825782  0.3280218522473557
  0.4133393537041596  0.5802357004778286  0.8334267839006362
  0.9133393537041598  0.0802357004778286  0.3334267839006363
  0.9103024278935941  0.0820397069825781  0.8280218522473556
  0.9139012886936966  0.5807164457832283  0.3335109654189595
  0.9173803771296676  0.5800307003692281  0.8370222418382387
  0.0826196228703326  0.4199692996307719  0.1629777581617613
  0.0860987113063034  0.4192835542167718  0.6664890345810405
  0.0896975721064058  0.9179602930174218  0.1719781477526444
  0.0866606462958404  0.9197642995221714  0.6665732160993638
  0.5866606462958402  0.4197642995221714  0.1665732160993636
  0.5896975721064059  0.4179602930174219  0.6719781477526444
  0.5860987113063034  0.9192835542167717  0.1664890345810405
  0.5826196228703324  0.9199692996307719  0.6629777581617613
  0.2461203063976349  0.4181975049269530  0.3282442837669513
  0.2530208119125131  0.4196013216026909  0.8330823110472374
  0.2567610540064880  0.9197968041409904  0.3373094518402492
  0.2529947985752229  0.9194790710404850  0.8331993520313135
  0.7529947985752230  0.4194790710404850  0.3331993520313134
  0.7567610540064880  0.4197968041409904  0.8373094518402495
  0.7530208119125130  0.9196013216026908  0.3330823110472375
  0.7461203063976348  0.9181975049269528  0.8282442837669514
  0.1717557162330487  0.2538796936023652  0.0818024950730470
  0.1626905481597507  0.2432389459935120  0.5802031958590096
  0.1668006479686866  0.7470052014247770  0.0805209289595150
  0.1669176889527625  0.7469791880874870  0.5803986783973092
  0.6669176889527626  0.2469791880874869  0.0803986783973092
  0.6668006479686865  0.2470052014247771  0.5805209289595150
  0.6626905481597505  0.7432389459935120  0.0802031958590097
  0.6717557162330486  0.7538796936023652  0.5818024950730472
  0.3370222418382386  0.4173803771296674  0.0800307003692280
  0.3280218522473557  0.4103024278935942  0.5820397069825782
  0.3334267839006363  0.9133393537041598  0.0802357004778286
  0.3335109654189595  0.9139012886936966  0.5807164457832283
  0.8335109654189595  0.4139012886936966  0.0807164457832281
  0.8334267839006362  0.4133393537041596  0.5802357004778286
  0.8280218522473556  0.9103024278935941  0.0820397069825781
  0.8370222418382387  0.9173803771296676  0.5800307003692281
  0.1629777581617613  0.0826196228703326  0.4199692996307719
  0.1719781477526444  0.0896975721064058  0.9179602930174218
  0.1665732160993636  0.5866606462958402  0.4197642995221714
  0.1664890345810405  0.5860987113063034  0.9192835542167717
  0.6664890345810405  0.0860987113063034  0.4192835542167718
  0.6665732160993638  0.0866606462958404  0.9197642995221714
  0.6719781477526444  0.5896975721064059  0.4179602930174219
  0.6629777581617613  0.5826196228703324  0.9199692996307719
  0.3282442837669513  0.2461203063976349  0.4181975049269530
  0.3373094518402492  0.2567610540064880  0.9197968041409904
  0.3331993520313134  0.7529947985752230  0.4194790710404850
  0.3330823110472375  0.7530208119125130  0.9196013216026908
  0.8330823110472374  0.2530208119125131  0.4196013216026909
  0.8331993520313135  0.2529947985752229  0.9194790710404850
  0.8373094518402495  0.7567610540064880  0.4197968041409904
  0.8282442837669514  0.7461203063976348  0.9181975049269528
  0.0818024950730470  0.1717557162330487  0.2538796936023652
  0.0805209289595150  0.1668006479686866  0.7470052014247770
  0.0803986783973092  0.6669176889527626  0.2469791880874869
  0.0802031958590097  0.6626905481597505  0.7432389459935120
  0.5802031958590096  0.1626905481597507  0.2432389459935120
  0.5803986783973092  0.1669176889527625  0.7469791880874870
  0.5805209289595150  0.6668006479686865  0.2470052014247771
  0.5818024950730472  0.6717557162330486  0.7538796936023652
  0.0800307003692280  0.3370222418382386  0.4173803771296674
  0.0802357004778286  0.3334267839006363  0.9133393537041598
  0.0807164457832281  0.8335109654189595  0.4139012886936966
  0.0820397069825781  0.8280218522473556  0.9103024278935941
  0.5820397069825782  0.3280218522473557  0.4103024278935942
  0.5807164457832283  0.3335109654189595  0.9139012886936966
  0.5802357004778286  0.8334267839006362  0.4133393537041596
  0.5800307003692281  0.8370222418382387  0.9173803771296676
  0.4199692996307719  0.1629777581617613  0.0826196228703326
  0.4197642995221714  0.1665732160993636  0.5866606462958402
  0.4192835542167718  0.6664890345810405  0.0860987113063034
  0.4179602930174219  0.6719781477526444  0.5896975721064059
  0.9179602930174218  0.1719781477526444  0.0896975721064058
  0.9192835542167717  0.1664890345810405  0.5860987113063034
  0.9197642995221714  0.6665732160993638  0.0866606462958404
  0.9199692996307719  0.6629777581617613  0.5826196228703324
  0.4181975049269530  0.3282442837669513  0.2461203063976349
  0.4194790710404850  0.3331993520313134  0.7529947985752230
  0.4196013216026909  0.8330823110472374  0.2530208119125131
  0.4197968041409904  0.8373094518402495  0.7567610540064880
  0.9197968041409904  0.3373094518402492  0.2567610540064880
  0.9196013216026908  0.3330823110472375  0.7530208119125130
  0.9194790710404850  0.8331993520313135  0.2529947985752229
  0.9181975049269528  0.8282442837669514  0.7461203063976348
 
  0.00000000E+00  0.00000000E+00  0.00000000E+00
  0.00000000E+00  0.00000000E+00  0.00000000E+00
  0.00000000E+00  0.00000000E+00  0.00000000E+00
  0.00000000E+00  0.00000000E+00  0.00000000E+00
  0.00000000E+00  0.00000000E+00  0.00000000E+00
  0.00000000E+00  0.00000000E+00  0.00000000E+00
  0.00000000E+00  0.00000000E+00  0.00000000E+00
  0.00000000E+00  0.00000000E+00  0.00000000E+00
  0.00000000E+00  0.00000000E+00  0.00000000E+00
  0.00000000E+00  0.00000000E+00  0.00000000E+00
  0.00000000E+00  0.00000000E+00  0.00000000E+00
  0.00000000E+00  0.00000000E+00  0.00000000E+00
  0.00000000E+00  0.00000000E+00  0.00000000E+00
  0.00000000E+00  0.00000000E+00  0.00000000E+00
  0.00000000E+00  0.00000000E+00  0.00000000E+00
  0.00000000E+00  0.00000000E+00  0.00000000E+00
  0.00000000E+00  0.00000000E+00  0.00000000E+00
  0.00000000E+00  0.00000000E+00  0.00000000E+00
  0.00000000E+00  0.00000000E+00  0.00000000E+00
  0.00000000E+00  0.00000000E+00  0.00000000E+00
  0.00000000E+00  0.00000000E+00  0.00000000E+00
  0.00000000E+00  0.00000000E+00  0.00000000E+00
  0.00000000E+00  0.00000000E+00  0.00000000E+00
  0.00000000E+00  0.00000000E+00  0.00000000E+00
  0.00000000E+00  0.00000000E+00  0.00000000E+00
  0.00000000E+00  0.00000000E+00  0.00000000E+00
  0.00000000E+00  0.00000000E+00  0.00000000E+00
  0.00000000E+00  0.00000000E+00  0.00000000E+00
  0.00000000E+00  0.00000000E+00  0.00000000E+00
  0.00000000E+00  0.00000000E+00  0.00000000E+00
  0.00000000E+00  0.00000000E+00  0.00000000E+00
  0.00000000E+00  0.00000000E+00  0.00000000E+00
  0.00000000E+00  0.00000000E+00  0.00000000E+00
  0.00000000E+00  0.00000000E+00  0.00000000E+00
  0.00000000E+00  0.00000000E+00  0.00000000E+00
  0.00000000E+00  0.00000000E+00  0.00000000E+00
  0.00000000E+00  0.00000000E+00  0.00000000E+00
  0.00000000E+00  0.00000000E+00  0.00000000E+00
  0.00000000E+00  0.00000000E+00  0.00000000E+00
  0.00000000E+00  0.00000000E+00  0.00000000E+00
  0.00000000E+00  0.00000000E+00  0.00000000E+00
  0.00000000E+00  0.00000000E+00  0.00000000E+00
  0.00000000E+00  0.00000000E+00  0.00000000E+00
  0.00000000E+00  0.00000000E+00  0.00000000E+00
  0.00000000E+00  0.00000000E+00  0.00000000E+00
  0.00000000E+00  0.00000000E+00  0.00000000E+00
  0.00000000E+00  0.00000000E+00  0.00000000E+00
  0.00000000E+00  0.00000000E+00  0.00000000E+00
  0.00000000E+00  0.00000000E+00  0.00000000E+00
  0.00000000E+00  0.00000000E+00  0.00000000E+00
  0.00000000E+00  0.00000000E+00  0.00000000E+00
  0.00000000E+00  0.00000000E+00  0.00000000E+00
  0.00000000E+00  0.00000000E+00  0.00000000E+00
  0.00000000E+00  0.00000000E+00  0.00000000E+00
  0.00000000E+00  0.00000000E+00  0.00000000E+00
  0.00000000E+00  0.00000000E+00  0.00000000E+00
  0.00000000E+00  0.00000000E+00  0.00000000E+00
  0.00000000E+00  0.00000000E+00  0.00000000E+00
  0.00000000E+00  0.00000000E+00  0.00000000E+00
  0.00000000E+00  0.00000000E+00  0.00000000E+00
  0.00000000E+00  0.00000000E+00  0.00000000E+00
  0.00000000E+00  0.00000000E+00  0.00000000E+00
  0.00000000E+00  0.00000000E+00  0.00000000E+00
  0.00000000E+00  0.00000000E+00  0.00000000E+00
  0.00000000E+00  0.00000000E+00  0.00000000E+00
  0.00000000E+00  0.00000000E+00  0.00000000E+00
  0.00000000E+00  0.00000000E+00  0.00000000E+00
  0.00000000E+00  0.00000000E+00  0.00000000E+00
  0.00000000E+00  0.00000000E+00  0.00000000E+00
  0.00000000E+00  0.00000000E+00  0.00000000E+00
  0.00000000E+00  0.00000000E+00  0.00000000E+00
  0.00000000E+00  0.00000000E+00  0.00000000E+00
  0.00000000E+00  0.00000000E+00  0.00000000E+00
  0.00000000E+00  0.00000000E+00  0.00000000E+00
  0.00000000E+00  0.00000000E+00  0.00000000E+00
  0.00000000E+00  0.00000000E+00  0.00000000E+00
  0.00000000E+00  0.00000000E+00  0.00000000E+00
  0.00000000E+00  0.00000000E+00  0.00000000E+00
  0.00000000E+00  0.00000000E+00  0.00000000E+00
  0.00000000E+00  0.00000000E+00  0.00000000E+00
  0.00000000E+00  0.00000000E+00  0.00000000E+00
  0.00000000E+00  0.00000000E+00  0.00000000E+00
  0.00000000E+00  0.00000000E+00  0.00000000E+00
  0.00000000E+00  0.00000000E+00  0.00000000E+00
  0.00000000E+00  0.00000000E+00  0.00000000E+00
  0.00000000E+00  0.00000000E+00  0.00000000E+00
  0.00000000E+00  0.00000000E+00  0.00000000E+00
  0.00000000E+00  0.00000000E+00  0.00000000E+00
  0.00000000E+00  0.00000000E+00  0.00000000E+00
  0.00000000E+00  0.00000000E+00  0.00000000E+00
  0.00000000E+00  0.00000000E+00  0.00000000E+00
  0.00000000E+00  0.00000000E+00  0.00000000E+00
  0.00000000E+00  0.00000000E+00  0.00000000E+00
  0.00000000E+00  0.00000000E+00  0.00000000E+00
  0.00000000E+00  0.00000000E+00  0.00000000E+00
  0.00000000E+00  0.00000000E+00  0.00000000E+00
  0.00000000E+00  0.00000000E+00  0.00000000E+00
  0.00000000E+00  0.00000000E+00  0.00000000E+00
  0.00000000E+00  0.00000000E+00  0.00000000E+00
  0.00000000E+00  0.00000000E+00  0.00000000E+00
  0.00000000E+00  0.00000000E+00  0.00000000E+00
  0.00000000E+00  0.00000000E+00  0.00000000E+00
  0.00000000E+00  0.00000000E+00  0.00000000E+00
  0.00000000E+00  0.00000000E+00  0.00000000E+00
  0.00000000E+00  0.00000000E+00  0.00000000E+00
  0.00000000E+00  0.00000000E+00  0.00000000E+00
  0.00000000E+00  0.00000000E+00  0.00000000E+00
  0.00000000E+00  0.00000000E+00  0.00000000E+00
  0.00000000E+00  0.00000000E+00  0.00000000E+00
  0.00000000E+00  0.00000000E+00  0.00000000E+00
  0.00000000E+00  0.00000000E+00  0.00000000E+00
  0.00000000E+00  0.00000000E+00  0.00000000E+00
  0.00000000E+00  0.00000000E+00  0.00000000E+00
  0.00000000E+00  0.00000000E+00  0.00000000E+00
  0.00000000E+00  0.00000000E+00  0.00000000E+00
  0.00000000E+00  0.00000000E+00  0.00000000E+00
  0.00000000E+00  0.00000000E+00  0.00000000E+00
  0.00000000E+00  0.00000000E+00  0.00000000E+00
  0.00000000E+00  0.00000000E+00  0.00000000E+00
  0.00000000E+00  0.00000000E+00  0.00000000E+00
  0.00000000E+00  0.00000000E+00  0.00000000E+00
  0.00000000E+00  0.00000000E+00  0.00000000E+00
  0.00000000E+00  0.00000000E+00  0.00000000E+00
  0.00000000E+00  0.00000000E+00  0.00000000E+00
  0.00000000E+00  0.00000000E+00  0.00000000E+00
  0.00000000E+00  0.00000000E+00  0.00000000E+00
  0.00000000E+00  0.00000000E+00  0.00000000E+00
  0.00000000E+00  0.00000000E+00  0.00000000E+00
  0.00000000E+00  0.00000000E+00  0.00000000E+00
  0.00000000E+00  0.00000000E+00  0.00000000E+00
