generated by phonopy                    
   1.00000000000000     
     0.0000000000000000    5.4830985791581881    5.4830985791581881
     5.4830985791581881    0.0000000000000000    5.4830985791581881
     5.4830985791581881    5.4830985791581881   -0.0000000000000000
   Cs   Sn   Br
     2     1     6
Direct
  0.2500000000000000  0.2500000000000000  0.2500000000000000
  0.7500000000000000  0.7500000000000000  0.7500000000000000
  0.0000000000000000  0.0000000000000000 -0.0000000000000000
  0.2397666768417074  0.2397666768417074  0.7602333231582930
  0.7602333231582930  0.7602333231582930  0.2397666768417074
  0.7602333231582930  0.2397666768417074  0.2397666768417074
  0.2397666768417074  0.7602333231582930  0.7602333231582930
  0.2397666768417074  0.7602333231582930  0.2397666768417074
  0.7602333231582930  0.2397666768417074  0.7602333231582930
 
  0.00000000E+00  0.00000000E+00  0.00000000E+00
  0.00000000E+00  0.00000000E+00  0.00000000E+00
  0.00000000E+00  0.00000000E+00  0.00000000E+00
  0.00000000E+00  0.00000000E+00  0.00000000E+00
  0.00000000E+00  0.00000000E+00  0.00000000E+00
  0.00000000E+00  0.00000000E+00  0.00000000E+00
  0.00000000E+00  0.00000000E+00  0.00000000E+00
  0.00000000E+00  0.00000000E+00  0.00000000E+00
  0.00000000E+00  0.00000000E+00  0.00000000E+00
